<?xml version = "1.0" encoding="UTF-8" standalone="yes"?>
<CPLEXSolution version="1.2">
 <header
   problemName="IloCplex"
   solutionName="p0"
   solutionIndex="-1"
   objectiveValue="20525088"
   solutionTypeValue="3"
   solutionTypeString="primal"
   solutionStatusValue="127"
   solutionStatusString="integer feasible solution"
   solutionMethodString="mip"
   primalFeasible="0"
   dualFeasible="0"
   writeLevel="3"/>
 <quality
   epInt="1.0000000000000001e-05"
   epRHS="9.9999999999999995e-07"
   maxIntInfeas="0"
   maxPrimalInfeas="0"
   maxX="1"
   maxSlack="1"/>
 <variables>
  <variable name="w2_1" index="29" value="1"/>
  <variable name="w2_2" index="30" value="1"/>
  <variable name="w2_3" index="31" value="1"/>
  <variable name="w2_4" index="32" value="1"/>
  <variable name="w2_8" index="36" value="1"/>
  <variable name="w2_12" index="40" value="1"/>
  <variable name="w5_1" index="71" value="1"/>
  <variable name="w5_2" index="72" value="1"/>
  <variable name="w5_3" index="73" value="1"/>
  <variable name="w5_4" index="74" value="1"/>
  <variable name="w5_8" index="78" value="1"/>
  <variable name="w5_12" index="82" value="1"/>
  <variable name="w6_1" index="85" value="1"/>
  <variable name="w6_2" index="86" value="1"/>
  <variable name="w6_3" index="87" value="1"/>
  <variable name="w6_4" index="88" value="1"/>
  <variable name="w6_8" index="92" value="1"/>
  <variable name="w6_12" index="96" value="1"/>
  <variable name="w8_1" index="113" value="1"/>
  <variable name="w8_2" index="114" value="1"/>
  <variable name="w8_3" index="115" value="1"/>
  <variable name="w8_4" index="116" value="1"/>
  <variable name="w8_8" index="120" value="1"/>
  <variable name="w8_12" index="124" value="1"/>
  <variable name="w12_1" index="169" value="1"/>
  <variable name="w12_2" index="170" value="1"/>
  <variable name="w12_3" index="171" value="1"/>
  <variable name="w12_4" index="172" value="1"/>
  <variable name="w12_8" index="176" value="1"/>
  <variable name="w12_12" index="180" value="1"/>
  <variable name="k2" index="198" value="1"/>
  <variable name="k5" index="201" value="1"/>
  <variable name="k6" index="202" value="1"/>
  <variable name="k8" index="204" value="1"/>
  <variable name="k12" index="208" value="1"/>
  <variable name="u1" index="211" value="1"/>
  <variable name="u2" index="212" value="1"/>
  <variable name="u3" index="213" value="1"/>
  <variable name="u4" index="214" value="1"/>
  <variable name="u8" index="218" value="1"/>
  <variable name="u12" index="222" value="1"/>
  <variable name="x0_75" index="299" value="1"/>
  <variable name="x1_17" index="341" value="1"/>
  <variable name="x2_95" index="519" value="1"/>
  <variable name="x3_39" index="563" value="1"/>
  <variable name="x4_98" index="722" value="1"/>
  <variable name="x5_33" index="757" value="1"/>
  <variable name="x6_67" index="891" value="1"/>
  <variable name="x7_31" index="955" value="1"/>
  <variable name="x8_11" index="1035" value="1"/>
  <variable name="x9_87" index="1211" value="1"/>
  <variable name="x10_18" index="1242" value="1"/>
  <variable name="x11_53" index="1377" value="1"/>
  <variable name="x12_66" index="1490" value="1"/>
  <variable name="x13_23" index="1547" value="1"/>
  <variable name="x14_38" index="1662" value="1"/>
  <variable name="x15_2" index="1726" value="1"/>
  <variable name="x16_78" index="1902" value="1"/>
  <variable name="x17_61" index="1985" value="1"/>
  <variable name="x18_0" index="2024" value="1"/>
  <variable name="x19_89" index="2213" value="1"/>
  <variable name="x20_63" index="2287" value="1"/>
  <variable name="x21_4" index="2328" value="1"/>
  <variable name="x22_19" index="2443" value="1"/>
  <variable name="x23_54" index="2578" value="1"/>
  <variable name="x24_5" index="2629" value="1"/>
  <variable name="x25_27" index="2751" value="1"/>
  <variable name="x26_68" index="2892" value="1"/>
  <variable name="x27_90" index="3014" value="1"/>
  <variable name="x28_65" index="3089" value="1"/>
  <variable name="x29_14" index="3138" value="1"/>
  <variable name="x30_42" index="3266" value="1"/>
  <variable name="x31_84" index="3408" value="1"/>
  <variable name="x32_88" index="3512" value="1"/>
  <variable name="x33_80" index="3604" value="1"/>
  <variable name="x34_69" index="3693" value="1"/>
  <variable name="x35_52" index="3776" value="1"/>
  <variable name="x36_57" index="3881" value="1"/>
  <variable name="x37_41" index="3965" value="1"/>
  <variable name="x38_62" index="4086" value="1"/>
  <variable name="x39_86" index="4210" value="1"/>
  <variable name="x40_9" index="4233" value="1"/>
  <variable name="x41_76" index="4400" value="1"/>
  <variable name="x42_25" index="4449" value="1"/>
  <variable name="x43_82" index="4606" value="1"/>
  <variable name="x44_40" index="4664" value="1"/>
  <variable name="x45_36" index="4760" value="1"/>
  <variable name="x46_73" index="4897" value="1"/>
  <variable name="x47_15" index="4939" value="1"/>
  <variable name="x48_77" index="5101" value="1"/>
  <variable name="x49_58" index="5182" value="1"/>
  <variable name="x50_83" index="5307" value="1"/>
  <variable name="x51_93" index="5417" value="1"/>
  <variable name="x52_81" index="5505" value="1"/>
  <variable name="x53_24" index="5548" value="1"/>
  <variable name="x54_1" index="5625" value="1"/>
  <variable name="x55_6" index="5730" value="1"/>
  <variable name="x56_12" index="5836" value="1"/>
  <variable name="x57_56" index="5980" value="1"/>
  <variable name="x58_96" index="6120" value="1"/>
  <variable name="x59_34" index="6158" value="1"/>
  <variable name="x60_85" index="6309" value="1"/>
  <variable name="x61_50" index="6374" value="1"/>
  <variable name="x62_97" index="6521" value="1"/>
  <variable name="x63_22" index="6546" value="1"/>
  <variable name="x64_35" index="6659" value="1"/>
  <variable name="x65_91" index="6815" value="1"/>
  <variable name="x66_55" index="6879" value="1"/>
  <variable name="x67_51" index="6975" value="1"/>
  <variable name="x68_21" index="7045" value="1"/>
  <variable name="x69_45" index="7169" value="1"/>
  <variable name="x70_94" index="7318" value="1"/>
  <variable name="x71_74" index="7398" value="1"/>
  <variable name="x72_79" index="7503" value="1"/>
  <variable name="x73_28" index="7552" value="1"/>
  <variable name="x74_26" index="7650" value="1"/>
  <variable name="x75_64" index="7788" value="1"/>
  <variable name="x76_92" index="7916" value="1"/>
  <variable name="x77_59" index="7983" value="1"/>
  <variable name="x78_47" index="8071" value="1"/>
  <variable name="x79_30" index="8154" value="1"/>
  <variable name="x80_29" index="8253" value="1"/>
  <variable name="x81_72" index="8396" value="1"/>
  <variable name="x82_71" index="8495" value="1"/>
  <variable name="x83_20" index="8544" value="1"/>
  <variable name="x84_46" index="8670" value="1"/>
  <variable name="x85_13" index="8737" value="1"/>
  <variable name="x86_48" index="8872" value="1"/>
  <variable name="x87_32" index="8956" value="1"/>
  <variable name="x88_44" index="9068" value="1"/>
  <variable name="x89_70" index="9194" value="1"/>
  <variable name="x90_16" index="9240" value="1"/>
  <variable name="x91_60" index="9384" value="1"/>
  <variable name="x92_37" index="9461" value="1"/>
  <variable name="x93_7" index="9531" value="1"/>
  <variable name="x94_3" index="9627" value="1"/>
  <variable name="x95_10" index="9734" value="1"/>
  <variable name="x96_49" index="9873" value="1"/>
  <variable name="x97_8" index="9932" value="1"/>
  <variable name="x98_43" index="10067" value="1"/>
  <variable name="x99_99" index="10223" value="1"/>
 </variables>
</CPLEXSolution>
